NAME : 10_3_3_1_(44).dat
COMMENT : Henke, Speranza, Wäscher, 2015
TYPE : MCVRP
DIMENSION : 11
EDGE_WEIGHT_TYPE : DISTANCE_MATRIX
CAPACITY : 1000
VEHICLES : 2
PRODUCT TYPES : 3
COMPARTMENTS : 3
NODE_COORD_SECTION
1 50 50
2 19.43 50.31
3 26.68 90.12
4 68.7 27.18
5 59.45 55.38
6 33.36 49.19
7 19.73 21.98
8 82.6 12.41
9 27.5 81.81
10 78.52 48.96
11 1.24 70.94
DEMAND_SECTION
1 0 0 0
2 0 189 0
3 161 0 0
4 42 0 0
5 115 0 0
6 0 258 0
7 88 0 0
8 0 0 298
9 103 0 0
10 66 0 0
11 171 0 0
DEPOT_SECTION
1
EOF